NAME : B-n10-1
DIMENSION : 10
VEHICLE NUMBER : 5
VEHICLE CAPACITY : 70
MAX POD NUMBER : 2
NODE_COORD_SECTION 
 1 28 57
 2 76 46
 3 67 5
 4 84 22
 5 73 6
 6 67 72
 7 68 74
 8 68 6
 9 76 7
 10 80 0
DEMAND_SECTION 
1 0 
2 6 
3 12 
4 2 
5 24 
6 3 
7 18 
8 21 
9 14 
10 1  
DEPOT_SECTION 
 1  
 -1  
EOF 
